NAME : rbg016b.tw.1304.tour
COMMENT : Length = 1304
COMMENT : Found by LKH [Keld Helsgaun] Thu Jan 16 16:40:34 2020
TYPE : TOUR
DIMENSION : 17
TOUR_SECTION
1
3
4
2
5
6
9
10
11
12
13
14
7
16
8
17
15
-1
EOF
